(set-logic QF_S)
(set-option :parse-transducers true)
(set-option :produce-models true)
(define-fun-rec toLower ((x String) (y String)) Bool
   (or (and (= x "") (= y ""))
       (and (not (= x "")) (not (= y ""))
           (= (char.code (str.head y))
               (ite (and (<= 65 (char.code (str.head x)))
                       (<= (char.code (str.head x)) 90))
                   (+ (char.code (str.head x)) 32)
                   (char.code (str.head x))))
           (toLower (str.tail x) (str.tail y))))
)
(declare-fun sym205 () String)
(declare-fun sym547 () String)
(declare-fun sym813 () String)
(declare-fun sym3836 () String)
(declare-fun sym1910 () String)
(declare-fun sym2128 () String)
(declare-fun sym2986 () String)
(declare-fun sym2337 () String)
(declare-fun sym1479 () String)
(declare-fun sym3624 () String)
(declare-fun sym3414 () String)
(declare-fun sym1695 () String)
(declare-fun sym3202 () String)
(declare-fun sym4047 () String)
(declare-fun sym2552 () String)
(declare-fun sym2770 () String)
(declare-fun sym4352 () String)
(declare-fun sym1040 () String)
(declare-fun sym4253 () String)
(declare-fun sym1261 () String)
(declare-fun sym161 () String)
(declare-fun L16  () String)
(declare-fun L34  () String)
(declare-fun L13  () String)
(declare-fun L46  () String)
(declare-fun L9  () String)
(declare-fun L14  () String)
(declare-fun L15  () String)
(declare-fun L48  () String)
(declare-fun L8  () String)
(declare-fun L20  () String)
(declare-fun L5  () String)
(declare-fun L10  () String)
(declare-fun L32  () String)
(declare-fun L54  () String)
(declare-fun L6  () String)
(declare-fun L11  () String)
(declare-fun L66  () String)
(declare-fun L4  () String)
(declare-fun L1  () String)
(declare-fun L0  () String)
(define-fun Alphabet () RegLan 
	(re.* (re.union (str.to_re "A") (str.to_re "B") (str.to_re "C") (str.to_re "D") (str.to_re "E") (str.to_re "F") (str.to_re "G") (str.to_re "H") (str.to_re "I") (str.to_re "J") (str.to_re "K") (str.to_re "L") (str.to_re "M") (str.to_re "N") (str.to_re "O") (str.to_re "P") (str.to_re "Q") (str.to_re "R") (str.to_re "S") (str.to_re "T") (str.to_re "U") (str.to_re "V") (str.to_re "W") (str.to_re "X") (str.to_re "Y") (str.to_re "Z") (str.to_re "a") (str.to_re "b") (str.to_re "c") (str.to_re "d") (str.to_re "e") (str.to_re "f") (str.to_re "g") (str.to_re "h") (str.to_re "i") (str.to_re "j") (str.to_re "k") (str.to_re "l") (str.to_re "m") (str.to_re "n") (str.to_re "o") (str.to_re "p") (str.to_re "q") (str.to_re "r") (str.to_re "s") (str.to_re "t") (str.to_re "u") (str.to_re "v") (str.to_re "w") (str.to_re "x") (str.to_re "y") (str.to_re "z") ))
)
(assert (toLower (str.substr sym1695  0 1) L0 ))
(assert (toLower (str.substr sym4047  0 1) L1 ))
(assert (toLower (str.substr sym3202  0 1) L4 ))
(assert (toLower (str.substr sym1910  0 1) L66 ))
(assert (toLower (str.substr sym3836  0 1) L11 ))
(assert (toLower (str.substr sym2552  0 1) L6 ))
(assert (toLower (str.substr sym3624  0 1) L54 ))
(assert (toLower (str.substr sym205  0 1) L32 ))
(assert (toLower (str.substr sym4352  0 1) L10 ))
(assert (toLower (str.substr sym3414  0 1) L5 ))
(assert (toLower (str.substr sym813  0 1) L20 ))
(assert (toLower (str.substr sym2770  0 1) L8 ))
(assert (toLower (str.substr sym1479  0 1) L48 ))
(assert (toLower (str.substr sym2986  0 1) L15 ))
(assert (toLower (str.substr sym1040  0 1) L14 ))
(assert (toLower (str.substr sym1261  0 1) L9 ))
(assert (toLower (str.substr sym547  0 1) L46 ))
(assert (toLower (str.substr sym2128  0 1) L13 ))
(assert (toLower (str.substr sym4253  0 1) L34 ))
(assert (toLower (str.substr sym2337  0 1) L16 ))

(assert (str.in_re sym161 Alphabet))
(assert (str.in_re sym1261 Alphabet))
(assert (str.in_re sym4253 Alphabet))
(assert (str.in_re sym1040 Alphabet))
(assert (str.in_re sym4352 Alphabet))
(assert (str.in_re sym2770 Alphabet))
(assert (str.in_re sym2552 Alphabet))
(assert (str.in_re sym4047 Alphabet))
(assert (str.in_re sym3202 Alphabet))
(assert (str.in_re sym1695 Alphabet))
(assert (str.in_re sym3414 Alphabet))
(assert (str.in_re sym3624 Alphabet))
(assert (str.in_re sym1479 Alphabet))
(assert (str.in_re sym2337 Alphabet))
(assert (str.in_re sym2986 Alphabet))
(assert (str.in_re sym2128 Alphabet))
(assert (str.in_re sym1910 Alphabet))
(assert (str.in_re sym3836 Alphabet))
(assert (str.in_re sym813 Alphabet))
(assert (str.in_re sym547 Alphabet))
(assert (str.in_re sym205 Alphabet))(assert (<= 1 (str.len sym1261 )))
(assert (<= 1 (str.len sym1695 )))
(assert (<= 1 (str.len sym1040 )))
(assert (<= 1 (str.len sym4047 )))
(assert (<= 1 (str.len sym3624 )))
(assert (<= 1 (str.len sym3414 )))
(assert (<= 1 (str.len sym1910 )))
(assert (<= 1 (str.len sym3836 )))
(assert (<= 1 (str.len sym4352 )))
(assert (<= 1 (str.len sym1479 )))
(assert (<= 1 (str.len sym547 )))
(assert (<= 1 (str.len sym4253 )))
(assert (<= 1 (str.len sym205 )))
(assert (<= 1 (str.len sym813 )))
(assert (<= 1 (str.len sym2552 )))
(assert (<= 1 (str.len sym2770 )))
(assert (<= 1 (str.len sym3202 )))
(assert (<= 1 (str.len sym2337 )))
(assert (<= 1 (str.len sym2128 )))
(assert (<= 1 (str.len sym2986 )))

(assert (not (= L0 "p" )))
(assert (= L1 "l" ))
(assert (= "y" "y" ))
(assert (not (= "" sym4352 )))
(assert (not (= "" sym2552 )))
(assert (not (= L0 "k" )))
(assert (not (= "" sym3624 )))
(assert (not (= L1 "r" )))
(assert (not (= L4 "q" )))
(assert (= L5 "g" ))
(assert (not (= L6 "q" )))
(assert (not (= L5 "q" )))
(assert (= L8 "g" ))
(assert (= L9 "p" ))
(assert (not (= "" L10 )))
(assert (not (= L11 "k" )))
(assert (not (= "y" "n" )))
(assert (not (= L0 "g" )))
(assert (not (= L13 "q" )))
(assert (not (= L14 "r" )))
(assert (not (= "" sym1261 )))
(assert (not (= L15 "q" )))
(assert (= L16 "h" ))
(assert (not (= "" sym3836 )))
(assert (not (= L8 "k" )))
(assert (not (= L15 "r" )))
(assert (not (= "" "y" )))
(assert (not (= "" sym2128 )))
(assert (not (= L11 "p" )))
(assert (not (= L20 "q" )))
(assert (not (= "" "q" )))
(assert (= "" "" ))
(assert (not (= "" sym2986 )))
(assert (not (= L16 "p" )))
(assert (= L0 "h" ))
(assert (not (= L14 "q" )))
(assert (not (= L16 "l" )))
(assert (not (= L14 "g" )))
(assert (not (= L13 "k" )))
(assert (= L13 "g" ))
(assert (not (= L5 "p" )))
(assert (not (= L14 "l" )))
(assert (not (= "" sym2770 )))
(assert (not (= "" sym1910 )))
(assert (not (= "" "y" )))
(assert (not (= L1 "q" )))
(assert (= L14 "h" ))
(assert (not (= "" L32 )))
(assert (= L20 "g" ))
(assert (not (= L34 "q" )))
(assert (not (= L8 "q" )))
(assert (not (= L15 "g" )))
(assert (not (= L1 "k" )))
(assert (not (= L15 "k" )))
(assert (not (= L9 "q" )))
(assert (not (= L15 "l" )))
(assert (= L34 "p" ))
(assert (not (= "" sym547 )))
(assert (= L11 "g" ))
(assert (not (= "" sym161 )))
(assert (not (= L5 "k" )))
(assert (not (= "" sym1695 )))
(assert (not (= "" "n" )))
(assert (not (= "" sym2337 )))
(assert (= L4 "p" ))
(assert (not (= L11 "q" )))
(assert (= L46 "p" ))
(assert (not (= L0 "r" )))
(assert (not (= L48 "k" )))
(assert (not (= L10 "y" )))
(assert (not (= L16 "q" )))
(assert (not (= L20 "k" )))
(assert (not (= L48 "q" )))
(assert (not (= L15 "p" )))
(assert (= L54 "p" ))
(assert (not (= L13 "p" )))
(assert (= L6 "p" ))
(assert (= L32 "y" ))
(assert (not (= L48 "p" )))
(assert (not (= L1 "p" )))
(assert (not (= L46 "q" )))
(assert (not (= "" sym1479 )))
(assert (not (= L16 "k" )))
(assert (not (= L16 "r" )))
(assert (not (= L0 "l" )))
(assert (not (= L1 "g" )))
(assert (= L48 "g" ))
(assert (not (= L66 "q" )))
(assert (not (= L20 "p" )))
(assert (not (= "" sym205 )))
(assert (not (= "" sym3202 )))
(assert (not (= L14 "k" )))
(assert (= L15 "h" ))
(assert (not (= "n" "y" )))
(assert (not (= "" sym1040 )))
(assert (not (= L0 "q" )))
(assert (not (= "" sym4253 )))
(assert (not (= "" sym3414 )))
(assert (not (= L8 "p" )))
(assert (not (= L54 "q" )))
(assert (not (= "" sym813 )))
(assert (not (= "" sym4047 )))
(assert (not (= L16 "g" )))
(assert (= L66 "p" ))
(assert (not (= L14 "p" )))
(check-sat)
(get-model)
(exit)
